p cnf 10 50
8 -1 4 0
-4 9 -1 0
-7 -2 9 0
-8 7 -4 0
1 -2 7 0
-1 -9 10 0
3 8 -4 0
-1 5 -9 0
-6 -5 -10 0
-2 8 -10 0
-7 -3 2 0
-8 -3 -6 0
-8 3 1 0
3 4 9 0
-7 -4 6 0
-10 7 3 0
4 -1 -3 0
-8 4 7 0
8 6 3 0
1 -8 6 0
5 9 -3 0
-9 -10 1 0
6 8 -7 0
8 1 -3 0
10 3 4 0
10 -4 6 0
-1 -2 -7 0
-2 -5 9 0
10 -7 4 0
7 -10 2 0
9 1 5 0
10 2 3 0
-3 -2 -1 0
3 -10 -8 0
3 -4 -7 0
7 3 5 0
3 7 8 0
5 1 -3 0
-5 4 -7 0
-10 3 8 0
-1 9 -7 0
9 -6 -8 0
5 3 -9 0
-7 -8 9 0
-4 -3 -10 0
-8 9 4 0
9 -8 -2 0
9 -8 5 0
4 -8 -2 0
8 9 1 0